100
120
100
100
98
98
98
98
97
97
96
93
91
91
91
91
89
88
87
86
86
85
83
83
83
82
82
80
79
78
78
76
75
75
75
74
72
72
72
72
71
69
68
66
66
66
62
61
60
59
58
58
57
56
55
54
53
51
50
50
50
50
49
48
48
47
47
47
47
46
46
45
45
42
41
40
40
39
39
38
38
37
36
36
36
36
33
32
30
30
30
27
25
24
24
24
23
23
22
21
21
20
